800 800
100.00 400.00
110.17 400.00
120.34 400.00
130.51 400.00
140.68 400.00
150.85 400.00
161.02 400.00
171.19 400.00
181.36 400.00
191.53 400.00
201.69 400.00
211.86 400.00
222.03 400.00
232.20 400.00
242.37 400.00
252.54 400.00
262.71 400.00
272.88 400.00
283.05 400.00
293.22 400.00
303.39 400.00
313.56 400.00
323.73 400.00
333.90 400.00
344.07 400.00
354.24 400.00
364.41 400.00
374.58 400.00
384.75 400.00
394.92 400.00
405.08 400.00
415.25 400.00
425.42 400.00
435.59 400.00
445.76 400.00
455.93 400.00
466.10 400.00
476.27 400.00
486.44 400.00
496.61 400.00
506.78 400.00
516.95 400.00
527.12 400.00
537.29 400.00
547.46 400.00
557.63 400.00
567.80 400.00
577.97 400.00
588.14 400.00
598.31 400.00
608.47 400.00
618.64 400.00
628.81 400.00
638.98 400.00
649.15 400.00
659.32 400.00
669.49 400.00
679.66 400.00
689.83 400.00
700.00 400.00
400.00 100.00
400.00 110.17
400.00 120.34
400.00 130.51
400.00 140.68
400.00 150.85
400.00 161.02
400.00 171.19
400.00 181.36
400.00 191.53
400.00 201.69
400.00 211.86
400.00 222.03
400.00 232.20
400.00 242.37
400.00 252.54
400.00 262.71
400.00 272.88
400.00 283.05
400.00 293.22
400.00 303.39
400.00 313.56
400.00 323.73
400.00 333.90
400.00 344.07
400.00 354.24
400.00 364.41
400.00 374.58
400.00 384.75
400.00 394.92
400.00 405.08
400.00 415.25
400.00 425.42
400.00 435.59
400.00 445.76
400.00 455.93
400.00 466.10
400.00 476.27
400.00 486.44
400.00 496.61
400.00 506.78
400.00 516.95
400.00 527.12
400.00 537.29
400.00 547.46
400.00 557.63
400.00 567.80
400.00 577.97
400.00 588.14
400.00 598.31
400.00 608.47
400.00 618.64
400.00 628.81
400.00 638.98
400.00 649.15
400.00 659.32
400.00 669.49
400.00 679.66
400.00 689.83
400.00 700.00
